91 1
68 57
62 50
64 25
97 22
6 8
3 38
39 4
58 84
14 18
55 95
91 80
73 23
74 22
68 59
76 36
93 38
3 52
12 93
88 26
91 0
15 30
31 93
49 32
1 14
32 36
60 6
9 57
65 69
60 76
80 10
25 32
67 34
16 6
74 70
42 25
10 61
27 66
95 19
51 80
15 85
21 31
17 7
14 13
82 69
7 35
57 99
41 42
89 7
27 81
73 60
0 83
89 0
11 7
17 60
40 79
34 20
47 4
79 73
69 69
87 79
62 91
9 76
53 79
50 11
37 49
64 22
29 7
30 45
70 50
39 60
42 46
52 2
69 11
47 83
81 90
10 90
94 4
69 3
24 40
85 51
59 59
83 1
34 71
85 76
64 10
56 55
89 76
66 68
94 62
62 41
92 18
4 56
19 98
39 39
95 26
74 61
6 54
13 36
46 16
